\* Problem: Unknown *\

Maximize
 obj: + xp_0_0 + xp_1_0 + xp_1_1 + xp_2_0 + xp_2_1 + xp_3_0 + xp_3_1
 + xp_4_0 + xp_5_0 + xp_6_0 + xp_7_0 + xp_8_0 + xp_9_0 + xp_9_1
 + xp_10_0 + xp_11_0 + xp_11_1 + xp_12_0 + xp_12_1 + xp_13_0 + xp_13_1
 + xp_14_0 + xp_14_1 + xp_15_0 + xp_16_0 + xp_17_0 + xp_17_1 + xp_18_0
 + xp_18_1 + xp_18_2 + xp_19_0 + xp_19_1 + xp_20_0 + xp_21_0 + xp_22_0
 + xp_22_1 + xp_23_0 + xp_24_0 + xp_24_1 + xp_24_2 + xp_25_0 + xp_26_0
 + xp_27_0 + xp_28_0 + xp_28_1 + xp_29_0 + xp_30_0 + xp_30_1 + xp_31_0
 + xp_32_0 + xp_32_1 + xp_33_0 + xp_34_0 + xp_34_1 + xp_35_0 + xp_36_0
 + xp_37_0 + xp_38_0 + xp_38_1 + xp_39_0 + xp_40_0 + xp_40_1 + xp_40_2
 + xp_41_0 + xp_42_0 + xp_42_1 + xp_42_2 + xp_43_0 + xp_44_0 + xp_45_0
 + xp_46_0 + xp_47_0 + xp_48_0 + xp_49_0 + xp_50_0 + xp_50_1 + xp_51_0
 + xp_52_0 + xp_53_0 + xp_53_1 + xp_54_0 + xp_55_0 + xp_56_0 + xp_57_0
 + xp_57_1 + xp_58_0 + xp_58_1 + xp_58_2 + xp_59_0 + xp_60_0 + xp_60_1
 + xp_61_0 + xp_61_1 + xp_62_0 + xp_63_0 + xp_63_1 + xp_64_0 + xp_65_0
 + xp_65_1 + xp_66_0 + xp_67_0 + xp_67_1 + xp_68_0 + xp_68_1 + xp_68_2
 + xp_69_0 + xp_70_0 + xp_71_0 + xp_72_0 + xp_73_0 + xp_74_0 + xp_74_1
 + xp_75_0 + xp_75_1 + xp_76_0 + xp_77_0 + xp_77_1 + xp_78_0 + xp_78_1
 + xp_78_2 + xp_78_3 + xp_78_4 + xp_79_0 + xp_79_1 + xp_79_2 + xp_80_0
 + xp_80_1 + xp_81_0 + xp_81_1 + xp_82_0 + xp_83_0 + xp_84_0 + xp_85_0
 + xp_85_1 + xp_86_0 + xp_86_1 + xp_87_0 + xp_88_0 + xp_89_0 + xp_89_1
 + xp_90_0 + xp_90_1 + xp_90_2 + xp_91_0 + xp_91_1 + xp_91_2 + xp_92_0
 + xp_93_0 + xp_94_0 + xp_95_0 + xp_95_1 + xp_96_0 + xp_96_1 + xp_97_0
 + xp_98_0 + xp_98_1 + xp_99_0 + xp_100_0 + xp_101_0 + xp_102_0
 + xp_103_0 + xp_104_0 + xp_105_0 + xp_106_0 + xp_107_0 + xp_108_0
 + xp_108_1 + xp_108_2 + xp_109_0 + xp_109_1 + xp_110_0 + xp_111_0
 + xp_111_1 + xp_111_2 + xp_112_0 + xp_112_1 + xp_113_0 + xp_114_0
 + xp_115_0 + xp_115_1 + xp_116_0 + xp_116_1 + xp_117_0 + xp_118_0
 + xp_119_0 + xp_120_0 + xp_120_1 + xp_120_2 + xp_121_0 + xp_122_0
 + xp_123_0 + xp_124_0 + xp_125_0 + xp_125_1 + xp_126_0 + xp_126_1
 + xp_126_2 + xp_126_3 + xp_126_4 + xp_127_0 + xp_127_1 + xp_128_0
 + xp_128_1 + xp_129_0 + xp_129_1 + xp_130_0 + xp_131_0 + xp_131_1
 + xp_131_2

Subject To
 r_1: + xp_128_1 + xp_122_0 + xp_121_0 + xp_108_2 + xp_107_0 + xp_78_3
 + xp_67_1 + xp_57_1 + xp_40_2 + xp_40_1 + xp_25_0 + xp_22_1 + xp_18_2
 + xp_18_0 + xp_16_0 + xp_13_1 + xp_4_0 <= 39648.3971044467
 r_2: + xp_131_2 + xp_131_1 + xp_127_1 + xp_126_1 + xp_120_2 + xp_120_0
 + xp_93_0 + xp_90_1 + xp_89_1 + xp_85_1 + xp_85_0 + xp_77_1 + xp_75_1
 + xp_75_0 + xp_74_1 + xp_71_0 + xp_66_0 + xp_65_1 + xp_65_0 + xp_61_1
 + xp_55_0 + xp_52_0 + xp_48_0 + xp_42_2 + xp_42_1 + xp_38_1 + xp_32_1
 + xp_32_0 + xp_28_1 + xp_28_0 + xp_24_2 + xp_24_0 + xp_19_1 + xp_19_0
 + xp_12_1 + xp_1_1 <= 35092.9221035983
 r_3: + xp_126_4 + xp_114_0 + xp_95_0 + xp_91_2 + xp_79_2 + xp_76_0
 + xp_68_2 + xp_58_1 + xp_34_0 + xp_32_1 <= 39327.3986152324
 r_4: + xp_117_0 + xp_95_1 + xp_91_1 + xp_91_0 + xp_84_0 + xp_79_1
 + xp_79_0 + xp_78_4 + xp_46_0 + xp_43_0 + xp_40_2 + xp_40_1 + xp_40_0
 + xp_34_1 <= 36716.5109034268
 r_5: + xp_130_0 + xp_99_0 + xp_86_0 + xp_78_4 + xp_7_0 + xp_2_0
 <= 39327.3986152324
 r_6: + xp_126_4 + xp_126_2 + xp_119_0 + xp_114_0 + xp_95_0 + xp_91_2
 + xp_83_0 + xp_81_0 + xp_79_2 + xp_70_0 + xp_68_2 + xp_68_1 + xp_58_2
 + xp_58_1 + xp_53_0 + xp_45_0 + xp_34_0 + xp_32_1 + xp_30_1 + xp_18_0
 <= 39033.1753554502
 r_7: + xp_112_1 + xp_111_2 + xp_111_1 + xp_104_0 + xp_88_0 + xp_82_0
 + xp_81_1 + xp_78_2 + xp_53_1 + xp_50_1 + xp_44_0 + xp_27_0 + xp_18_2
 + xp_18_1 + xp_3_1 <= 36716.5109034268
 r_8: + xp_131_2 + xp_131_1 + xp_127_1 + xp_126_1 + xp_120_2 + xp_120_0
 + xp_118_0 + xp_103_0 + xp_90_1 + xp_89_1 + xp_77_1 + xp_74_1 + xp_71_0
 + xp_61_1 + xp_55_0 + xp_42_2 + xp_42_1 + xp_38_1 + xp_32_1 + xp_32_0
 + xp_24_2 + xp_24_0 + xp_12_1 + xp_1_1 <= 39648.3971044467
 r_9: + xp_131_0 + xp_127_0 + xp_122_0 + xp_120_1 + xp_108_2 + xp_78_3
 + xp_77_0 + xp_67_1 + xp_57_1 + xp_42_0 + xp_33_0 + xp_24_1
 <= 39820.1058201058
 r_10: + xp_112_1 + xp_111_2 + xp_111_1 + xp_106_0 + xp_99_0 + xp_98_0
 + xp_88_0 + xp_86_0 + xp_85_0 + xp_78_4 + xp_78_2 + xp_50_1 + xp_26_0
 + xp_24_0 + xp_8_0 + xp_7_0 + xp_3_1 + xp_2_0 <= 39033.1753554502
 r_11: + xp_119_0 + xp_112_0 + xp_111_0 + xp_95_0 + xp_91_2 + xp_81_0
 + xp_79_2 + xp_78_3 + xp_78_1 + xp_78_0 + xp_59_0 + xp_53_0 + xp_50_0
 + xp_49_0 + xp_45_0 + xp_34_0 + xp_18_0 + xp_4_0 + xp_3_0
 <= 36228.508042152
 r_12: + xp_129_0 + xp_128_0 + xp_123_0 + xp_117_0 + xp_112_1 + xp_111_1
 + xp_108_1 + xp_101_0 + xp_91_1 + xp_82_0 + xp_81_1 + xp_80_1 + xp_79_1
 + xp_78_4 + xp_78_2 + xp_78_0 + xp_73_0 + xp_63_1 + xp_60_0 + xp_50_1
 + xp_46_0 + xp_44_0 + xp_40_1 + xp_40_0 + xp_18_1 + xp_17_1 + xp_15_0
 + xp_14_1 + xp_13_0 + xp_9_0 <= 36088.8175494917
 r_13: + xp_129_1 + xp_128_1 + xp_126_3 + xp_120_2 + xp_120_1 + xp_111_2
 + xp_109_1 + xp_100_0 + xp_96_1 + xp_95_1 + xp_91_0 + xp_90_0 + xp_80_0
 + xp_79_0 + xp_75_1 + xp_68_0 + xp_63_0 + xp_60_1 + xp_53_1 + xp_40_2
 + xp_34_1 + xp_31_0 + xp_30_0 + xp_18_2 + xp_17_0 + xp_13_1 + xp_9_1
 <= 36228.508042152
 r_14: + xp_131_2 + xp_131_1 + xp_131_0 + xp_126_4 + xp_126_2 + xp_125_1
 + xp_125_0 + xp_124_0 + xp_115_1 + xp_115_0 + xp_98_1 + xp_94_0
 + xp_86_1 + xp_85_1 + xp_77_1 + xp_77_0 + xp_68_2 + xp_68_1 + xp_65_1
 + xp_65_0 + xp_58_2 + xp_58_1 + xp_56_0 + xp_51_0 + xp_41_0 + xp_38_1
 + xp_38_0 + xp_35_0 + xp_32_1 + xp_30_1 + xp_24_2 + xp_24_1 + xp_20_0
 + xp_19_1 + xp_19_0 + xp_12_1 + xp_12_0 + xp_2_1 + xp_0_0
 <= 36716.5109034268
 r_15: + xp_131_2 + xp_131_0 + xp_126_4 + xp_126_3 + xp_126_2 + xp_125_0
 + xp_124_0 + xp_120_2 + xp_120_1 + xp_116_0 + xp_115_0 + xp_109_1
 + xp_98_1 + xp_96_1 + xp_94_0 + xp_90_0 + xp_89_1 + xp_89_0 + xp_86_1
 + xp_85_1 + xp_77_1 + xp_77_0 + xp_75_1 + xp_68_2 + xp_68_1 + xp_68_0
 + xp_65_0 + xp_58_2 + xp_58_1 + xp_51_0 + xp_42_1 + xp_42_0 + xp_38_0
 + xp_36_0 + xp_32_1 + xp_28_1 + xp_24_1 + xp_19_1 + xp_12_0 + xp_11_0
 + xp_0_0 <= 36088.8175494917
 r_16: + xp_128_0 + xp_123_0 + xp_108_1 + xp_108_0 + xp_78_4 + xp_78_2
 + xp_78_1 + xp_78_0 + xp_73_0 + xp_67_0 + xp_57_0 + xp_46_0 + xp_44_0
 + xp_40_0 + xp_22_0 + xp_18_1 + xp_13_0 + xp_6_0 <= 39820.1058201058
 r_17: + xp_129_0 + xp_126_0 + xp_112_1 + xp_111_1 + xp_109_0 + xp_97_0
 + xp_91_1 + xp_90_2 + xp_81_1 + xp_80_1 + xp_79_1 + xp_63_1 + xp_62_0
 + xp_61_0 + xp_60_0 + xp_47_0 + xp_40_1 + xp_22_1 + xp_17_1 + xp_9_0
 + xp_1_0 <= 35092.9221035983
 r_18: + xp_126_3 + xp_126_1 + xp_126_0 + xp_106_0 + xp_99_0 + xp_98_0
 + xp_92_0 + xp_86_0 + xp_85_0 + xp_68_0 + xp_58_0 + xp_48_0 + xp_32_0
 + xp_30_0 + xp_26_0 + xp_24_0 + xp_5_0 + xp_2_0 <= 36228.508042152
 r_19: + xp_131_1 + xp_125_1 + xp_116_1 + xp_115_1 + xp_110_0 + xp_108_1
 + xp_78_0 + xp_65_1 + xp_56_0 + xp_42_2 + xp_38_1 + xp_28_0 + xp_24_2
 + xp_19_0 + xp_14_1 + xp_12_1 + xp_11_1 + xp_3_0 + xp_2_1
 <= 36228.508042152
 r_20: + xp_129_1 + xp_128_1 + xp_119_0 + xp_112_0 + xp_111_2 + xp_111_0
 + xp_108_2 + xp_108_0 + xp_107_0 + xp_95_1 + xp_95_0 + xp_91_2
 + xp_91_0 + xp_81_0 + xp_80_0 + xp_79_2 + xp_79_0 + xp_78_3 + xp_78_1
 + xp_69_0 + xp_64_0 + xp_63_0 + xp_60_1 + xp_50_0 + xp_49_0 + xp_45_0
 + xp_40_2 + xp_18_2 + xp_18_0 + xp_17_0 + xp_14_0 + xp_13_1 + xp_10_0
 + xp_9_1 + xp_4_0 <= 35092.9221035983
 r_21: + xp_126_4 + xp_113_0 + xp_86_1 + xp_77_1 + xp_77_0 + xp_68_2
 + xp_65_1 + xp_65_0 + xp_58_1 + xp_38_1 + xp_38_0 + xp_32_1 + xp_20_0
 + xp_2_1 + xp_0_0 <= 36716.5109034268
 r_22: + xp_126_2 + xp_124_0 + xp_105_0 + xp_98_1 + xp_94_0 + xp_85_1
 + xp_83_0 + xp_68_1 + xp_58_2 + xp_41_0 + xp_30_1 + xp_24_2 + xp_24_1
 <= 36716.5109034268
 r_23: + xp_128_1 + xp_128_0 + xp_117_0 + xp_112_1 + xp_111_2 + xp_111_1
 + xp_104_0 + xp_100_0 + xp_95_1 + xp_91_1 + xp_91_0 + xp_84_0 + xp_82_0
 + xp_81_1 + xp_80_1 + xp_80_0 + xp_79_1 + xp_79_0 + xp_78_4 + xp_78_2
 + xp_73_0 + xp_60_1 + xp_60_0 + xp_53_1 + xp_50_1 + xp_46_0 + xp_44_0
 + xp_40_2 + xp_40_1 + xp_40_0 + xp_34_1 + xp_21_0 + xp_18_2 + xp_18_1
 + xp_15_0 + xp_9_1 + xp_9_0 + xp_3_1 <= 36716.5109034268
 r_24: + xp_128_0 + xp_126_1 + xp_103_0 + xp_90_1 + xp_89_1 + xp_74_1
 + xp_61_1 + xp_40_0 + xp_39_0 + xp_38_1 + xp_22_0 + xp_18_1 + xp_13_0
 + xp_12_1 + xp_1_1 <= 39820.1058201058
 r_25: + xp_131_0 + xp_127_0 + xp_126_4 + xp_126_3 + xp_126_2 + xp_126_0
 + xp_120_1 + xp_94_0 + xp_90_2 + xp_90_0 + xp_89_0 + xp_77_0 + xp_74_0
 + xp_61_0 + xp_42_0 + xp_38_0 + xp_24_1 + xp_12_0 + xp_1_0
 <= 39820.1058201058
 r_26: + xp_128_1 + xp_121_0 + xp_112_1 + xp_112_0 + xp_108_2 + xp_107_0
 + xp_81_1 + xp_81_0 + xp_79_2 + xp_79_1 + xp_79_0 + xp_78_3 + xp_67_1
 + xp_64_0 + xp_60_1 + xp_60_0 + xp_57_1 + xp_47_0 + xp_40_2 + xp_40_1
 + xp_37_0 + xp_29_0 + xp_25_0 + xp_22_1 + xp_18_2 + xp_18_0 + xp_17_1
 + xp_17_0 + xp_13_1 + xp_4_0 <= 35092.9221035983
 r_27: + xp_131_2 + xp_127_1 + xp_125_0 + xp_120_2 + xp_116_0 + xp_115_0
 + xp_108_0 + xp_98_1 + xp_96_1 + xp_89_1 + xp_86_1 + xp_85_1 + xp_78_1
 + xp_77_1 + xp_75_1 + xp_74_1 + xp_72_0 + xp_67_0 + xp_65_0 + xp_58_2
 + xp_58_1 + xp_57_0 + xp_52_0 + xp_50_0 + xp_42_1 + xp_32_1 + xp_28_1
 + xp_23_0 + xp_19_1 + xp_14_0 + xp_11_0 <= 35092.9221035983
 r_28: + xp_131_1 + xp_126_1 + xp_126_0 + xp_125_1 + xp_120_0 + xp_116_1
 + xp_115_1 + xp_109_0 + xp_99_0 + xp_98_0 + xp_96_0 + xp_92_0 + xp_90_2
 + xp_90_1 + xp_86_0 + xp_85_0 + xp_75_0 + xp_65_1 + xp_58_0 + xp_54_0
 + xp_48_0 + xp_42_2 + xp_38_1 + xp_32_0 + xp_28_0 + xp_26_0 + xp_24_2
 + xp_24_0 + xp_19_0 + xp_12_1 + xp_11_1 <= 35092.9221035983
 r_29: + xp_129_1 + xp_129_0 + xp_95_1 + xp_95_0 + xp_93_0 + xp_87_0
 + xp_71_0 + xp_62_0 + xp_49_0 + xp_45_0 + xp_10_0 + xp_9_1 + xp_9_0
 + xp_1_1 + xp_1_0 <= 35092.9221035983
 r_30: + xp_125_1 + xp_125_0 + xp_121_0 + xp_102_0 + xp_99_0 + xp_96_1
 + xp_96_0 + xp_92_0 + xp_57_1 + xp_57_0 + xp_37_0 + xp_26_0 + xp_23_0
 + xp_11_1 + xp_11_0 <= 35092.9221035983

Bounds
 0 <= xp_0_0 <= 236.162591767503
 0 <= xp_1_0 <= 149.505673254542
 0 <= xp_1_1 <= 33.2234829454537
 0 <= xp_2_0 <= 94.1831768336371
 0 <= xp_2_1 <= 20.9295948519194
 0 <= xp_3_0 <= 149.289780585582
 0 <= xp_3_1 <= 33.175506796796
 0 <= xp_4_0 <= 789.56146951543
 0 <= xp_5_0 <= 1084.30293879398
 0 <= xp_6_0 <= 1793.45038614053
 0 <= xp_7_0 <= 638.826407451535
 0 <= xp_8_0 <= 1511.04478408559
 0 <= xp_9_0 <= 49.2355225599593
 0 <= xp_9_1 <= 59.0826270719512
 0 <= xp_10_0 <= 54.8847140644029
 0 <= xp_11_0 <= 26.4468519475543
 0 <= xp_11_1 <= 15.1124868271739
 0 <= xp_12_0 <= 1692.76044414519
 0 <= xp_12_1 <= 376.168987587821
 0 <= xp_13_0 <= 183.412816318367
 0 <= xp_13_1 <= 68.7798061193877
 0 <= xp_14_0 <= 120.072306053046
 0 <= xp_14_1 <= 100.060255044205
 0 <= xp_15_0 <= 507.551670686918
 0 <= xp_16_0 <= 2643.23991327711
 0 <= xp_17_0 <= 162.171376500173
 0 <= xp_17_1 <= 135.142813750144
 0 <= xp_18_0 <= 163.32880108654
 0 <= xp_18_1 <= 163.32880108654
 0 <= xp_18_2 <= 32.665760217308
 0 <= xp_19_0 <= 577.944674804921
 0 <= xp_19_1 <= 481.620562337434
 0 <= xp_20_0 <= 128.372179770827
 0 <= xp_21_0 <= 274.753406344036
 0 <= xp_22_0 <= 560.571311972253
 0 <= xp_22_1 <= 672.685574366703
 0 <= xp_23_0 <= 52.0481242750167
 0 <= xp_24_0 <= 185.991534308718
 0 <= xp_24_1 <= 123.994356205812
 0 <= xp_24_2 <= 30.9985890514531
 0 <= xp_25_0 <= 579.389956283234
 0 <= xp_26_0 <= 15.370358626209
 0 <= xp_27_0 <= 338.279824185406
 0 <= xp_28_0 <= 364.498789426836
 0 <= xp_28_1 <= 303.74899118903
 0 <= xp_29_0 <= 2450.68164362087
 0 <= xp_30_0 <= 166.897027142956
 0 <= xp_30_1 <= 16.6897027142956
 0 <= xp_31_0 <= 190.843122341728
 0 <= xp_32_0 <= 1844.10120508589
 0 <= xp_32_1 <= 409.800267796865
 0 <= xp_33_0 <= 8069.57021316852
 0 <= xp_34_0 <= 186.003528345883
 0 <= xp_34_1 <= 325.506174605295
 0 <= xp_35_0 <= 261.362063849957
 0 <= xp_36_0 <= 319.347236521363
 0 <= xp_37_0 <= 365.326377991182
 0 <= xp_38_0 <= 304.768484348006
 0 <= xp_38_1 <= 30.4768484348006
 0 <= xp_39_0 <= 1575.42877558422
 0 <= xp_40_0 <= 386.477862530643
 0 <= xp_40_1 <= 154.591145012257
 0 <= xp_40_2 <= 309.182290024514
 0 <= xp_41_0 <= 80.0182189424527
 0 <= xp_42_0 <= 330.747568846148
 0 <= xp_42_1 <= 41.3434461057685
 0 <= xp_42_2 <= 82.686892211537
 0 <= xp_43_0 <= 492.709049695944
 0 <= xp_44_0 <= 459.197709858544
 0 <= xp_45_0 <= 42.6148140451974
 0 <= xp_46_0 <= 1607.68673853794
 0 <= xp_47_0 <= 880.134441162576
 0 <= xp_48_0 <= 2910.40709111465
 0 <= xp_49_0 <= 88.1981522885897
 0 <= xp_50_0 <= 428.403019438886
 0 <= xp_50_1 <= 357.002516199072
 0 <= xp_51_0 <= 710.532758639042
 0 <= xp_52_0 <= 663.300240285542
 0 <= xp_53_0 <= 172.894045725168
 0 <= xp_53_1 <= 17.2894045725168
 0 <= xp_54_0 <= 3698.58324933759
 0 <= xp_55_0 <= 1186.81597443831
 0 <= xp_56_0 <= 95.9163152038963
 0 <= xp_57_0 <= 187.586741251587
 0 <= xp_57_1 <= 18.7586741251587
 0 <= xp_58_0 <= 3311.12187575946
 0 <= xp_58_1 <= 827.780468939866
 0 <= xp_58_2 <= 413.890234469933
 0 <= xp_59_0 <= 10659.0468548561
 0 <= xp_60_0 <= 370.25592726576
 0 <= xp_60_1 <= 308.5466060548
 0 <= xp_61_0 <= 1762.49977323773
 0 <= xp_61_1 <= 660.93741496415
 0 <= xp_62_0 <= 131.406671173426
 0 <= xp_63_0 <= 96.0002734640473
 0 <= xp_63_1 <= 36.0001025490177
 0 <= xp_64_0 <= 995.774950483367
 0 <= xp_65_0 <= 475.5635735694
 0 <= xp_65_1 <= 47.55635735694
 0 <= xp_66_0 <= 1682.36161392364
 0 <= xp_67_0 <= 331.503193187507
 0 <= xp_67_1 <= 73.6673762638904
 0 <= xp_68_0 <= 536.517270439001
 0 <= xp_68_1 <= 804.775905658502
 0 <= xp_68_2 <= 134.12931760975
 0 <= xp_69_0 <= 1721.01839570457
 0 <= xp_70_0 <= 632.559523033124
 0 <= xp_71_0 <= 70.9807119390595
 0 <= xp_72_0 <= 599.90575685298
 0 <= xp_73_0 <= 924.332468113477
 0 <= xp_74_0 <= 867.828559031877
 0 <= xp_74_1 <= 86.7828559031877
 0 <= xp_75_0 <= 1605.94160613051
 0 <= xp_75_1 <= 160.594160613051
 0 <= xp_76_0 <= 1724.58062474241
 0 <= xp_77_0 <= 416.720827240737
 0 <= xp_77_1 <= 156.270310215276
 0 <= xp_78_0 <= 2548.54698986399
 0 <= xp_78_1 <= 2548.54698986399
 0 <= xp_78_2 <= 12742.7349493199
 0 <= xp_78_3 <= 7645.64096959197
 0 <= xp_78_4 <= 2548.54698986399
 0 <= xp_79_0 <= 582.11859973814
 0 <= xp_79_1 <= 388.079066492093
 0 <= xp_79_2 <= 97.0197666230233
 0 <= xp_80_0 <= 143.736541378454
 0 <= xp_80_1 <= 82.1351665019735
 0 <= xp_81_0 <= 213.84168860451
 0 <= xp_81_1 <= 47.5203752454467
 0 <= xp_82_0 <= 220.198528301655
 0 <= xp_83_0 <= 504.781048101936
 0 <= xp_84_0 <= 891.678701933333
 0 <= xp_85_0 <= 186.117471698945
 0 <= xp_85_1 <= 223.340966038734
 0 <= xp_86_0 <= 78.0811819403983
 0 <= xp_86_1 <= 93.697418328478
 0 <= xp_87_0 <= 141.565620651693
 0 <= xp_88_0 <= 426.08217324757
 0 <= xp_89_0 <= 2023.03424852335
 0 <= xp_89_1 <= 202.303424852335
 0 <= xp_90_0 <= 9885.27553526764
 0 <= xp_90_1 <= 9885.27553526764
 0 <= xp_90_2 <= 1977.05510705353
 0 <= xp_91_0 <= 1239.55375585028
 0 <= xp_91_1 <= 1239.55375585028
 0 <= xp_91_2 <= 247.910751170056
 0 <= xp_92_0 <= 67.0226796747996
 0 <= xp_93_0 <= 130.746999129383
 0 <= xp_94_0 <= 237.613870264398
 0 <= xp_95_0 <= 55.8922131862145
 0 <= xp_95_1 <= 5.58922131862145
 0 <= xp_96_0 <= 105.187705931996
 0 <= xp_96_1 <= 10.5187705931996
 0 <= xp_97_0 <= 528.793110505112
 0 <= xp_98_0 <= 104.300147181829
 0 <= xp_98_1 <= 39.1125551931857
 0 <= xp_99_0 <= 16.4258338966783
 0 <= xp_100_0 <= 504.583146488723
 0 <= xp_101_0 <= 250.675376736455
 0 <= xp_102_0 <= 75.2026130209366
 0 <= xp_103_0 <= 1444.41790763722
 0 <= xp_104_0 <= 132.330212035087
 0 <= xp_105_0 <= 1454.57685711548
 0 <= xp_106_0 <= 41.5593387747281
 0 <= xp_107_0 <= 451.21567812562
 0 <= xp_108_0 <= 309.758003808407
 0 <= xp_108_1 <= 232.318502856305
 0 <= xp_108_2 <= 309.758003808407
 0 <= xp_109_0 <= 440.840835978393
 0 <= xp_109_1 <= 529.009003174072
 0 <= xp_110_0 <= 133.649556123173
 0 <= xp_111_0 <= 2400.94237150001
 0 <= xp_111_1 <= 266.771374611112
 0 <= xp_111_2 <= 266.771374611112
 0 <= xp_112_0 <= 3842.72758797963
 0 <= xp_112_1 <= 853.939463995474
 0 <= xp_113_0 <= 426.807812496018
 0 <= xp_114_0 <= 2405.69201021712
 0 <= xp_115_0 <= 161.199859489855
 0 <= xp_115_1 <= 60.4499473086955
 0 <= xp_116_0 <= 116.534065089541
 0 <= xp_116_1 <= 43.7002744085778
 0 <= xp_117_0 <= 1949.66072616998
 0 <= xp_118_0 <= 3165.10646731977
 0 <= xp_119_0 <= 62.9986802061355
 0 <= xp_120_0 <= 1385.22733423079
 0 <= xp_120_1 <= 593.66885752748
 0 <= xp_120_2 <= 197.889619175827
 0 <= xp_121_0 <= 75.7963178605756
 0 <= xp_122_0 <= 2282.26737077662
 0 <= xp_123_0 <= 515.533702419842
 0 <= xp_124_0 <= 138.135326022668
 0 <= xp_125_0 <= 17.4213389813254
 0 <= xp_125_1 <= 9.95505084647167
 0 <= xp_126_0 <= 2314.79519956653
 0 <= xp_126_1 <= 6944.3855986996
 0 <= xp_126_2 <= 9259.18079826614
 0 <= xp_126_3 <= 4629.59039913307
 0 <= xp_126_4 <= 2314.79519956653
 0 <= xp_127_0 <= 263.059220108723
 0 <= xp_127_1 <= 315.671064130467
 0 <= xp_128_0 <= 222.261502693936
 0 <= xp_128_1 <= 185.217918911613
 0 <= xp_129_0 <= 17.8711153749913
 0 <= xp_129_1 <= 31.2744519062348
 0 <= xp_130_0 <= 404.972667838184
 0 <= xp_131_0 <= 210.081557953463
 0 <= xp_131_1 <= 350.135929922439
 0 <= xp_131_2 <= 210.081557953463

End
